\ENCODING=ISO-8859-1
\Problem name: ilog.cplex

Maximize
 obj: 887 x(0)#0 + 499 x(1)#1 + 417 x(2)#2 + 729 x(3)#3 + 644 x(4)#4
      + 900 x(5)#5 + 881 x(6)#6 + 765 x(7)#7 + 571 x(8)#8 + 813 x(9)#9
      + 473 x(10)#10 + 682 x(11)#11 + 697 x(12)#12 + 1103 x(13)#13
      + 973 x(14)#14 + 841 x(15)#15 + 733 x(16)#16 + 759 x(17)#17
      + 620 x(18)#18 + 704 x(19)#19 + 1015 x(20)#20 + 778 x(21)#21
      + 1036 x(22)#22 + 695 x(23)#23 + 468 x(24)#24 + 451 x(25)#25
      + 522 x(26)#26 + 724 x(27)#27 + 581 x(28)#28 + 521 x(29)#29
      + 951 x(30)#30 + 502 x(31)#31 + 1022 x(32)#32 + 604 x(33)#33
      + 622 x(34)#34 + 756 x(35)#35 + 804 x(36)#36 + 596 x(37)#37
      + 674 x(38)#38 + 570 x(39)#39 + 742 x(40)#40 + 403 x(41)#41
      + 745 x(42)#42 + 1178 x(43)#43 + 725 x(44)#44 + 540 x(45)#45
      + 627 x(46)#46 + 957 x(47)#47 + 926 x(48)#48 + 690 x(49)#49
      + 887 x(50)#50 + 567 x(51)#51 + 933 x(52)#52 + 822 x(53)#53
      + 803 x(54)#54 + 541 x(55)#55 + 629 x(56)#56 + 1111 x(57)#57
      + 501 x(58)#58 + 907 x(59)#59 + 862 x(60)#60 + 534 x(61)#61
      + 1097 x(62)#62 + 870 x(63)#63 + 637 x(64)#64 + 622 x(65)#65
      + 1013 x(66)#66 + 641 x(67)#67 + 783 x(68)#68 + 782 x(69)#69
      + 783 x(70)#70 + 788 x(71)#71 + 901 x(72)#72 + 1076 x(73)#73
      + 659 x(74)#74 + 890 x(75)#75 + 689 x(76)#76 + 869 x(77)#77
      + 820 x(78)#78 + 849 x(79)#79 + 807 x(80)#80 + 851 x(81)#81
      + 445 x(82)#82 + 553 x(83)#83 + 594 x(84)#84 + 584 x(85)#85
      + 574 x(86)#86 + 441 x(87)#87 + 416 x(88)#88 + 656 x(89)#89
      + 769 x(90)#90 + 771 x(91)#91 + 735 x(92)#92 + 730 x(93)#93
      + 607 x(94)#94 + 906 x(95)#95 + 818 x(96)#96 + 986 x(97)#97
      + 553 x(98)#98 + 789 x(99)#99
Subject To
 c1:  387 x(0)#0 + 969 x(1)#1 + 277 x(2)#2 + 755 x(3)#3 + 230 x(4)#4
      + 405 x(5)#5 + 852 x(6)#6 + 653 x(7)#7 + 785 x(8)#8 + 852 x(9)#9
      + 121 x(10)#10 + 866 x(11)#11 + 853 x(12)#12 + 831 x(13)#13
      + 566 x(14)#14 + 641 x(15)#15 + 918 x(16)#16 + 771 x(17)#17
      + 258 x(18)#18 + 962 x(19)#19 + 483 x(20)#20 + 298 x(21)#21
      + 409 x(22)#22 + 352 x(23)#23 + 765 x(24)#24 + 990 x(25)#25
      + 699 x(26)#26 + 878 x(27)#27 + 801 x(28)#28 + 83 x(29)#29 + 949 x(30)#30
      + 586 x(31)#31 + 46 x(32)#32 + 506 x(33)#33 + 178 x(34)#34 + 563 x(35)#35
      + 141 x(36)#36 + 668 x(37)#37 + 464 x(38)#38 + 444 x(39)#39 + 27 x(40)#40
      + 157 x(41)#41 + 394 x(42)#42 + 734 x(43)#43 + 896 x(44)#44
      + 268 x(45)#45 + 409 x(46)#46 + 919 x(47)#47 + 477 x(48)#48
      + 876 x(49)#49 + 89 x(50)#50 + 29 x(51)#51 + 927 x(52)#52 + 636 x(53)#53
      + 412 x(54)#54 + 17 x(55)#55 + 510 x(56)#56 + 838 x(57)#57 + 721 x(58)#58
      + 931 x(59)#59 + 476 x(60)#60 + 794 x(61)#61 + 322 x(62)#62
      + 545 x(63)#63 + 958 x(64)#64 + 592 x(65)#65 + 889 x(66)#66
      + 967 x(67)#67 + 524 x(68)#68 + 184 x(69)#69 + 848 x(70)#70
      + 885 x(71)#71 + 184 x(72)#72 + 249 x(73)#73 + 346 x(74)#74
      + 203 x(75)#75 + 137 x(76)#76 + 811 x(77)#77 + 645 x(78)#78
      + 126 x(79)#79 + 564 x(80)#80 + 118 x(81)#81 + 237 x(82)#82
      + 719 x(83)#83 + 703 x(84)#84 + 526 x(85)#85 + 231 x(86)#86
      + 496 x(87)#87 + 645 x(88)#88 + 5 x(89)#89 + 146 x(90)#90 + 54 x(91)#91
      + 553 x(92)#92 + 655 x(93)#93 + 877 x(94)#94 + 988 x(95)#95 + 59 x(96)#96
      + 732 x(97)#97 + 144 x(98)#98 + 573 x(99)#99 <= 39924
 c2:  539 x(0)#0 + 15 x(1)#1 + 100 x(2)#2 + 296 x(3)#3 + 401 x(4)#4
      + 329 x(5)#5 + 953 x(6)#6 + 801 x(7)#7 + 232 x(8)#8 + 285 x(9)#9
      + 668 x(10)#10 + 636 x(11)#11 + 341 x(12)#12 + 969 x(13)#13
      + 493 x(14)#14 + 128 x(15)#15 + 235 x(16)#16 + 274 x(17)#17
      + 129 x(18)#18 + 404 x(19)#19 + 852 x(20)#20 + 812 x(21)#21
      + 621 x(22)#22 + 645 x(23)#23 + 800 x(24)#24 + 651 x(25)#25 + 21 x(26)#26
      + 507 x(27)#27 + 966 x(28)#28 + 829 x(29)#29 + 791 x(30)#30
      + 199 x(31)#31 + 874 x(32)#32 + 404 x(33)#33 + 883 x(34)#34
      + 284 x(35)#35 + 660 x(36)#36 + 764 x(37)#37 + 535 x(38)#38
      + 568 x(39)#39 + 525 x(40)#40 + 369 x(41)#41 + 436 x(42)#42
      + 489 x(43)#43 + 271 x(44)#44 + 838 x(45)#45 + 994 x(46)#46
      + 792 x(47)#47 + 172 x(48)#48 + 661 x(49)#49 + 868 x(50)#50
      + 415 x(51)#51 + 187 x(52)#52 + 210 x(53)#53 + 675 x(54)#54
      + 849 x(55)#55 + 905 x(56)#56 + 854 x(57)#57 + 731 x(58)#58
      + 518 x(59)#59 + 61 x(60)#60 + 260 x(61)#61 + 792 x(62)#62 + 403 x(63)#63
      + 834 x(64)#64 + 749 x(65)#65 + 590 x(66)#66 + 123 x(67)#67
      + 555 x(68)#68 + 627 x(69)#69 + 595 x(70)#70 + 288 x(71)#71
      + 584 x(72)#72 + 760 x(73)#73 + 870 x(74)#74 + 15 x(75)#75 + 427 x(76)#76
      + 996 x(77)#77 + 59 x(78)#78 + 759 x(79)#79 + 544 x(80)#80 + 561 x(81)#81
      + 6 x(82)#82 + 328 x(83)#83 + 472 x(84)#84 + 551 x(85)#85 + 483 x(86)#86
      + 555 x(87)#87 + 12 x(88)#88 + 350 x(89)#89 + 407 x(90)#90 + 797 x(91)#91
      + 34 x(92)#92 + 496 x(93)#93 + 753 x(94)#94 + 954 x(95)#95 + 482 x(96)#96
      + 626 x(97)#97 + 645 x(98)#98 + 372 x(99)#99 <= 39321
 c3:  213 x(0)#0 + 317 x(1)#1 + 214 x(2)#2 + 185 x(3)#3 + 130 x(4)#4
      + 169 x(5)#5 + 153 x(6)#6 + 205 x(7)#7 + 647 x(8)#8 + 420 x(9)#9
      + 586 x(10)#10 + 53 x(11)#11 + 145 x(12)#12 + 629 x(13)#13 + 831 x(14)#14
      + 766 x(15)#15 + 140 x(16)#16 + 892 x(17)#17 + 102 x(18)#18
      + 857 x(19)#19 + 722 x(20)#20 + 246 x(21)#21 + 784 x(22)#22 + 16 x(23)#23
      + 412 x(24)#24 + 249 x(25)#25 + 394 x(26)#26 + 597 x(27)#27
      + 802 x(28)#28 + 467 x(29)#29 + 967 x(30)#30 + 254 x(31)#31 + 66 x(32)#32
      + 11 x(33)#33 + 656 x(34)#34 + 458 x(35)#35 + 105 x(36)#36 + 628 x(37)#37
      + 502 x(38)#38 + 107 x(39)#39 + 381 x(40)#40 + 485 x(41)#41
      + 885 x(42)#42 + 905 x(43)#43 + 150 x(44)#44 + 306 x(45)#45
      + 129 x(46)#46 + 251 x(47)#47 + 928 x(48)#48 + 152 x(49)#49
      + 932 x(50)#50 + 828 x(51)#51 + 554 x(52)#52 + 195 x(53)#53
      + 791 x(54)#54 + 134 x(55)#55 + 563 x(56)#56 + 560 x(57)#57
      + 389 x(58)#58 + 50 x(59)#59 + 466 x(60)#60 + 489 x(61)#61 + 742 x(62)#62
      + 283 x(63)#63 + 154 x(64)#64 + 444 x(65)#65 + 528 x(66)#66
      + 821 x(67)#67 + 911 x(68)#68 + 954 x(69)#69 + 629 x(70)#70
      + 129 x(71)#71 + 916 x(72)#72 + 968 x(73)#73 + 149 x(74)#74
      + 757 x(75)#75 + 727 x(76)#76 + 280 x(77)#77 + 946 x(78)#78
      + 357 x(79)#79 + 643 x(80)#80 + 724 x(81)#81 + 325 x(82)#82
      + 284 x(83)#83 + 252 x(84)#84 + 944 x(85)#85 + 388 x(86)#86
      + 241 x(87)#87 + 160 x(88)#88 + 940 x(89)#89 + 680 x(90)#90
      + 546 x(91)#91 + 602 x(92)#92 + 692 x(93)#93 + 111 x(94)#94
      + 633 x(95)#95 + 822 x(96)#96 + 824 x(97)#97 + 87 x(98)#98 + 425 x(99)#99
      <= 35729
 c4:  867 x(0)#0 + 210 x(1)#1 + 509 x(2)#2 + 806 x(3)#3 + 540 x(4)#4
      + 580 x(5)#5 + 449 x(6)#6 + 95 x(7)#7 + 733 x(8)#8 + 861 x(9)#9
      + 362 x(10)#10 + 789 x(11)#11 + 397 x(12)#12 + 863 x(13)#13
      + 208 x(14)#14 + 249 x(15)#15 + 248 x(16)#16 + 946 x(17)#17
      + 566 x(18)#18 + 551 x(19)#19 + 410 x(20)#20 + 302 x(21)#21
      + 699 x(22)#22 + 989 x(23)#23 + 259 x(24)#24 + 323 x(25)#25
      + 325 x(26)#26 + 769 x(27)#27 + 716 x(28)#28 + 760 x(29)#29
      + 469 x(30)#30 + 165 x(31)#31 + 981 x(32)#32 + 317 x(33)#33
      + 848 x(34)#34 + 500 x(35)#35 + 685 x(36)#36 + 202 x(37)#37
      + 738 x(38)#38 + 313 x(39)#39 + 174 x(40)#40 + 307 x(41)#41
      + 955 x(42)#42 + 612 x(43)#43 + 678 x(44)#44 + 762 x(45)#45
      + 158 x(46)#46 + 723 x(47)#47 + 662 x(48)#48 + 747 x(49)#49 + 46 x(50)#50
      + 338 x(51)#51 + 664 x(52)#52 + 725 x(53)#53 + 456 x(54)#54
      + 795 x(55)#55 + 243 x(56)#56 + 486 x(57)#57 + 54 x(58)#58 + 588 x(59)#59
      + 94 x(60)#60 + 260 x(61)#61 + 225 x(62)#62 + 682 x(63)#63 + 486 x(64)#64
      + 443 x(65)#65 + 380 x(66)#66 + 161 x(67)#67 + 319 x(68)#68
      + 345 x(69)#69 + 848 x(70)#70 + 545 x(71)#71 + 588 x(72)#72
      + 498 x(73)#73 + 795 x(74)#74 + 944 x(75)#75 + 207 x(76)#76
      + 548 x(77)#77 + 399 x(78)#78 + 450 x(79)#79 + 303 x(80)#80
      + 907 x(81)#81 + 580 x(82)#82 + 768 x(83)#83 + 276 x(84)#84
      + 690 x(85)#85 + 837 x(86)#86 + 124 x(87)#87 + 980 x(88)#88
      + 766 x(89)#89 + 3 x(90)#90 + 504 x(91)#91 + 747 x(92)#92 + 35 x(93)#93
      + 716 x(94)#94 + 289 x(95)#95 + 69 x(96)#96 + 538 x(97)#97 + 873 x(98)#98
      + 871 x(99)#99 <= 38899
 c5:  715 x(0)#0 + 457 x(1)#1 + 258 x(2)#2 + 441 x(3)#3 + 358 x(4)#4
      + 793 x(5)#5 + 450 x(6)#6 + 570 x(7)#7 + 615 x(8)#8 + 446 x(9)#9
      + 35 x(10)#10 + 150 x(11)#11 + 434 x(12)#12 + 304 x(13)#13 + 879 x(14)#14
      + 299 x(15)#15 + 974 x(16)#16 + 844 x(17)#17 + 147 x(18)#18 + 39 x(19)#19
      + 117 x(20)#20 + 602 x(21)#21 + 140 x(22)#22 + 598 x(23)#23
      + 308 x(24)#24 + 429 x(25)#25 + 22 x(26)#26 + 344 x(27)#27 + 801 x(28)#28
      + 876 x(29)#29 + 56 x(30)#30 + 68 x(31)#31 + 984 x(32)#32 + 923 x(33)#33
      + 794 x(34)#34 + 87 x(35)#35 + 396 x(36)#36 + 872 x(37)#37 + 58 x(38)#38
      + 330 x(39)#39 + 301 x(40)#40 + 687 x(41)#41 + 513 x(42)#42
      + 983 x(43)#43 + 775 x(44)#44 + 69 x(45)#45 + 992 x(46)#46 + 817 x(47)#47
      + 252 x(48)#48 + 540 x(49)#49 + 33 x(50)#50 + 654 x(51)#51 + 294 x(52)#52
      + 147 x(53)#53 + 464 x(54)#54 + 6 x(55)#55 + 711 x(56)#56 + 954 x(57)#57
      + 30 x(58)#58 + 112 x(59)#59 + 748 x(60)#60 + 977 x(61)#61 + 689 x(62)#62
      + 249 x(63)#63 + 78 x(64)#64 + 990 x(65)#65 + 229 x(66)#66 + 316 x(67)#67
      + 766 x(68)#68 + 432 x(69)#69 + 945 x(70)#70 + 424 x(71)#71
      + 739 x(72)#72 + 831 x(73)#73 + 233 x(74)#74 + 620 x(75)#75
      + 966 x(76)#76 + 647 x(77)#77 + 391 x(78)#78 + 499 x(79)#79
      + 448 x(80)#80 + 457 x(81)#81 + 329 x(82)#82 + 288 x(83)#83
      + 536 x(84)#84 + 640 x(85)#85 + 936 x(86)#86 + 224 x(87)#87
      + 734 x(88)#88 + 524 x(89)#89 + 813 x(90)#90 + 906 x(91)#91
      + 430 x(92)#92 + 448 x(93)#93 + 796 x(94)#94 + 807 x(95)#95
      + 485 x(96)#96 + 611 x(97)#97 + 150 x(98)#98 + 168 x(99)#99 <= 37385
 c6:  221 x(0)#0 + 489 x(1)#1 + 472 x(2)#2 + 412 x(3)#3 + 473 x(4)#4
      + 911 x(5)#5 + 173 x(6)#6 + 479 x(7)#7 + 103 x(8)#8 + 505 x(9)#9
      + 883 x(10)#10 + 418 x(11)#11 + 504 x(12)#12 + 283 x(13)#13
      + 440 x(14)#14 + 236 x(15)#15 + 321 x(16)#16 + 106 x(17)#17
      + 780 x(18)#18 + 876 x(19)#19 + 687 x(20)#20 + 752 x(21)#21
      + 787 x(22)#22 + 708 x(23)#23 + 285 x(24)#24 + 145 x(25)#25
      + 896 x(26)#26 + 724 x(27)#27 + 533 x(28)#28 + 137 x(29)#29 + 91 x(30)#30
      + 427 x(31)#31 + 504 x(32)#32 + 305 x(33)#33 + 262 x(34)#34
      + 214 x(35)#35 + 885 x(36)#36 + 590 x(37)#37 + 955 x(38)#38
      + 647 x(39)#39 + 739 x(40)#40 + 192 x(41)#41 + 702 x(42)#42
      + 700 x(43)#43 + 134 x(44)#44 + 803 x(45)#45 + 193 x(46)#46
      + 236 x(47)#47 + 355 x(48)#48 + 352 x(49)#49 + 19 x(50)#50 + 178 x(51)#51
      + 28 x(52)#52 + 120 x(53)#53 + 552 x(54)#54 + 247 x(55)#55 + 211 x(56)#56
      + 477 x(57)#57 + 6 x(58)#58 + 809 x(59)#59 + 623 x(60)#60 + 321 x(61)#61
      + 397 x(62)#62 + 853 x(63)#63 + 743 x(64)#64 + 235 x(65)#65
      + 436 x(66)#66 + 574 x(67)#67 + 665 x(68)#68 + 701 x(69)#69
      + 852 x(70)#70 + 723 x(71)#71 + 880 x(72)#72 + 206 x(73)#73
      + 414 x(74)#74 + 370 x(75)#75 + 889 x(76)#76 + 504 x(77)#77
      + 290 x(78)#78 + 303 x(79)#79 + 261 x(80)#80 + 970 x(81)#81
      + 406 x(82)#82 + 938 x(83)#83 + 677 x(84)#84 + 579 x(85)#85
      + 283 x(86)#86 + 227 x(87)#87 + 22 x(88)#88 + 635 x(89)#89 + 942 x(90)#90
      + 998 x(91)#91 + 689 x(92)#92 + 850 x(93)#93 + 596 x(94)#94
      + 414 x(95)#95 + 826 x(96)#96 + 108 x(97)#97 + 146 x(98)#98
      + 364 x(99)#99 <= 36437
 c7:  571 x(0)#0 + 11 x(1)#1 + 247 x(2)#2 + 517 x(3)#3 + 920 x(4)#4
      + 435 x(5)#5 + 547 x(6)#6 + 276 x(7)#7 + 162 x(8)#8 + 507 x(9)#9
      + 316 x(10)#10 + 660 x(11)#11 + 119 x(12)#12 + 337 x(13)#13
      + 957 x(14)#14 + 787 x(15)#15 + 232 x(16)#16 + 714 x(17)#17
      + 341 x(18)#18 + 96 x(19)#19 + 760 x(20)#20 + 132 x(21)#21 + 711 x(22)#22
      + 587 x(23)#23 + 45 x(24)#24 + 580 x(25)#25 + 95 x(26)#26 + 590 x(27)#27
      + 25 x(28)#28 + 614 x(29)#29 + 272 x(30)#30 + 47 x(31)#31 + 437 x(32)#32
      + 921 x(33)#33 + 174 x(34)#34 + 347 x(35)#35 + 778 x(36)#36 + 14 x(37)#37
      + 662 x(38)#38 + 626 x(39)#39 + 111 x(40)#40 + 635 x(41)#41
      + 735 x(42)#42 + 740 x(43)#43 + 466 x(44)#44 + 380 x(45)#45
      + 183 x(46)#46 + 791 x(47)#47 + 759 x(48)#48 + 741 x(49)#49
      + 661 x(50)#50 + 510 x(51)#51 + 920 x(52)#52 + 495 x(53)#53
      + 659 x(54)#54 + 696 x(55)#55 + 538 x(56)#56 + 768 x(57)#57
      + 183 x(58)#58 + 533 x(59)#59 + 836 x(60)#60 + 921 x(61)#61
      + 957 x(62)#62 + 681 x(63)#63 + 935 x(64)#64 + 534 x(65)#65
      + 775 x(66)#66 + 974 x(67)#67 + 758 x(68)#68 + 327 x(69)#69
      + 815 x(70)#70 + 220 x(71)#71 + 274 x(72)#72 + 577 x(73)#73
      + 890 x(74)#74 + 720 x(75)#75 + 988 x(76)#76 + 812 x(77)#77 + 93 x(78)#78
      + 765 x(79)#79 + 232 x(80)#80 + 346 x(81)#81 + 596 x(82)#82
      + 332 x(83)#83 + 151 x(84)#84 + 501 x(85)#85 + 319 x(86)#86
      + 805 x(87)#87 + 321 x(88)#88 + 69 x(89)#89 + 260 x(90)#90 + 443 x(91)#91
      + 980 x(92)#92 + 284 x(93)#93 + 610 x(94)#94 + 681 x(95)#95
      + 503 x(96)#96 + 818 x(97)#97 + 610 x(98)#98 + 903 x(99)#99 <= 39217
 c8:  389 x(0)#0 + 615 x(1)#1 + 558 x(2)#2 + 218 x(3)#3 + 490 x(4)#4
      + 492 x(5)#5 + 6 x(6)#6 + 750 x(7)#7 + 367 x(8)#8 + 896 x(9)#9
      + 263 x(10)#10 + 724 x(11)#11 + 397 x(12)#12 + 852 x(13)#13
      + 914 x(14)#14 + 708 x(15)#15 + 323 x(16)#16 + 549 x(17)#17 + 30 x(18)#18
      + 521 x(19)#19 + 920 x(20)#20 + 844 x(21)#21 + 373 x(22)#22
      + 192 x(23)#23 + 560 x(24)#24 + 207 x(25)#25 + 671 x(26)#26
      + 822 x(27)#27 + 958 x(28)#28 + 214 x(29)#29 + 352 x(30)#30
      + 612 x(31)#31 + 885 x(32)#32 + 365 x(33)#33 + 474 x(34)#34
      + 907 x(35)#35 + 903 x(36)#36 + 173 x(37)#37 + 723 x(38)#38
      + 959 x(39)#39 + 970 x(40)#40 + 145 x(41)#41 + 228 x(42)#42
      + 438 x(43)#43 + 837 x(44)#44 + 744 x(45)#45 + 959 x(46)#46
      + 221 x(47)#47 + 534 x(48)#48 + 751 x(49)#49 + 854 x(50)#50
      + 510 x(51)#51 + 865 x(52)#52 + 316 x(53)#53 + 219 x(54)#54
      + 627 x(55)#55 + 904 x(56)#56 + 747 x(57)#57 + 771 x(58)#58
      + 474 x(59)#59 + 653 x(60)#60 + 257 x(61)#61 + 785 x(62)#62
      + 790 x(63)#63 + 152 x(64)#64 + 386 x(65)#65 + 412 x(66)#66
      + 633 x(67)#67 + 729 x(68)#68 + 43 x(69)#69 + 256 x(70)#70 + 451 x(71)#71
      + 85 x(72)#72 + 926 x(73)#73 + 22 x(74)#74 + 873 x(75)#75 + 441 x(76)#76
      + 448 x(77)#77 + 954 x(78)#78 + 662 x(79)#79 + 495 x(80)#80 + 76 x(81)#81
      + 888 x(82)#82 + 563 x(83)#83 + 827 x(84)#84 + 182 x(85)#85
      + 838 x(86)#86 + 110 x(87)#87 + 332 x(88)#88 + 511 x(89)#89
      + 879 x(90)#90 + 595 x(91)#91 + 779 x(92)#92 + 724 x(93)#93
      + 877 x(94)#94 + 869 x(95)#95 + 549 x(96)#96 + 733 x(97)#97
      + 180 x(98)#98 + 867 x(99)#99 <= 42092
 c9:  25 x(0)#0 + 766 x(1)#1 + 238 x(2)#2 + 306 x(3)#3 + 456 x(4)#4 + 87 x(5)#5
      + 474 x(6)#6 + 518 x(7)#7 + 935 x(8)#8 + 252 x(9)#9 + 76 x(10)#10
      + 337 x(11)#11 + 446 x(12)#12 + 204 x(13)#13 + 723 x(14)#14
      + 831 x(15)#15 + 478 x(16)#16 + 233 x(17)#17 + 453 x(18)#18
      + 208 x(19)#19 + 12 x(20)#20 + 892 x(21)#21 + 923 x(22)#22 + 274 x(23)#23
      + 832 x(24)#24 + 486 x(25)#25 + 707 x(26)#26 + 25 x(27)#27 + 124 x(28)#28
      + 15 x(29)#29 + 385 x(30)#30 + 904 x(31)#31 + 917 x(32)#32 + 335 x(33)#33
      + 717 x(34)#34 + 580 x(35)#35 + 52 x(36)#36 + 29 x(37)#37 + 379 x(38)#38
      + 758 x(39)#39 + 121 x(40)#40 + 915 x(41)#41 + 309 x(42)#42
      + 524 x(43)#43 + 11 x(44)#44 + 437 x(45)#45 + 448 x(46)#46 + 60 x(47)#47
      + 866 x(48)#48 + 502 x(49)#49 + 865 x(50)#50 + 464 x(51)#51
      + 409 x(52)#52 + 65 x(53)#53 + 94 x(54)#54 + 192 x(55)#55 + 380 x(56)#56
      + 120 x(57)#57 + 700 x(58)#58 + 106 x(59)#59 + 382 x(60)#60
      + 159 x(61)#61 + 900 x(62)#62 + 938 x(63)#63 + 71 x(64)#64 + 981 x(65)#65
      + 549 x(66)#66 + 305 x(67)#67 + 991 x(68)#68 + 472 x(69)#69 + 95 x(70)#70
      + 567 x(71)#71 + 334 x(72)#72 + 61 x(73)#73 + 820 x(74)#74 + 713 x(75)#75
      + 807 x(76)#76 + 794 x(77)#77 + 951 x(78)#78 + 816 x(79)#79
      + 343 x(80)#80 + 116 x(81)#81 + 290 x(82)#82 + 631 x(83)#83
      + 834 x(84)#84 + 991 x(85)#85 + 849 x(86)#86 + 851 x(87)#87
      + 832 x(88)#88 + 369 x(89)#89 + 696 x(90)#90 + 240 x(91)#91
      + 513 x(92)#92 + 877 x(93)#93 + 325 x(94)#94 + 983 x(95)#95
      + 990 x(96)#96 + 569 x(97)#97 + 773 x(98)#98 + 489 x(99)#99 <= 36935
 c10: 619 x(0)#0 + 382 x(1)#1 + 175 x(2)#2 + 282 x(3)#3 + 750 x(4)#4
      + 19 x(5)#5 + 122 x(6)#6 + 134 x(7)#7 + 368 x(8)#8 + 376 x(9)#9
      + 312 x(10)#10 + 333 x(11)#11 + 798 x(12)#12 + 907 x(13)#13
      + 592 x(14)#14 + 742 x(15)#15 + 895 x(16)#16 + 949 x(17)#17
      + 140 x(18)#18 + 884 x(19)#19 + 666 x(20)#20 + 841 x(21)#21
      + 950 x(22)#22 + 763 x(23)#23 + 167 x(24)#24 + 362 x(25)#25
      + 523 x(26)#26 + 649 x(27)#27 + 18 x(28)#28 + 362 x(29)#29 + 310 x(30)#30
      + 348 x(31)#31 + 199 x(32)#32 + 282 x(33)#33 + 739 x(34)#34 + 63 x(35)#35
      + 153 x(36)#36 + 516 x(37)#37 + 143 x(38)#38 + 461 x(39)#39
      + 920 x(40)#40 + 73 x(41)#41 + 178 x(42)#42 + 897 x(43)#43 + 726 x(44)#44
      + 108 x(45)#45 + 978 x(46)#46 + 731 x(47)#47 + 816 x(48)#48
      + 931 x(49)#49 + 718 x(50)#50 + 515 x(51)#51 + 132 x(52)#52
      + 617 x(53)#53 + 296 x(54)#54 + 755 x(55)#55 + 143 x(56)#56
      + 661 x(57)#57 + 391 x(58)#58 + 670 x(59)#59 + 36 x(60)#60 + 560 x(61)#61
      + 191 x(62)#62 + 378 x(63)#63 + 987 x(64)#64 + 9 x(65)#65 + 866 x(66)#66
      + 198 x(67)#67 + 327 x(68)#68 + 449 x(69)#69 + 155 x(70)#70
      + 876 x(71)#71 + 142 x(72)#72 + 789 x(73)#73 + 694 x(74)#74
      + 390 x(75)#75 + 695 x(76)#76 + 118 x(77)#77 + 73 x(78)#78 + 815 x(79)#79
      + 45 x(80)#80 + 322 x(81)#81 + 528 x(82)#82 + 96 x(83)#83 + 853 x(84)#84
      + 177 x(85)#85 + 211 x(86)#86 + 199 x(87)#87 + x(88)#88 + 71 x(89)#89
      + 553 x(90)#90 + 375 x(91)#91 + 530 x(92)#92 + 532 x(93)#93 + 97 x(94)#94
      + 747 x(95)#95 + 392 x(96)#96 + 653 x(97)#97 + 901 x(98)#98
      + 567 x(99)#99 <= 34611
Bounds
 0 <= x(0)#0 <= 1
 0 <= x(1)#1 <= 1
 0 <= x(2)#2 <= 1
 0 <= x(3)#3 <= 1
 0 <= x(4)#4 <= 1
 0 <= x(5)#5 <= 1
 0 <= x(6)#6 <= 1
 0 <= x(7)#7 <= 1
 0 <= x(8)#8 <= 1
 0 <= x(9)#9 <= 1
 0 <= x(10)#10 <= 1
 0 <= x(11)#11 <= 1
 0 <= x(12)#12 <= 1
 0 <= x(13)#13 <= 1
 0 <= x(14)#14 <= 1
 0 <= x(15)#15 <= 1
 0 <= x(16)#16 <= 1
 0 <= x(17)#17 <= 1
 0 <= x(18)#18 <= 1
 0 <= x(19)#19 <= 1
 0 <= x(20)#20 <= 1
 0 <= x(21)#21 <= 1
 0 <= x(22)#22 <= 1
 0 <= x(23)#23 <= 1
 0 <= x(24)#24 <= 1
 0 <= x(25)#25 <= 1
 0 <= x(26)#26 <= 1
 0 <= x(27)#27 <= 1
 0 <= x(28)#28 <= 1
 0 <= x(29)#29 <= 1
 0 <= x(30)#30 <= 1
 0 <= x(31)#31 <= 1
 0 <= x(32)#32 <= 1
 0 <= x(33)#33 <= 1
 0 <= x(34)#34 <= 1
 0 <= x(35)#35 <= 1
 0 <= x(36)#36 <= 1
 0 <= x(37)#37 <= 1
 0 <= x(38)#38 <= 1
 0 <= x(39)#39 <= 1
 0 <= x(40)#40 <= 1
 0 <= x(41)#41 <= 1
 0 <= x(42)#42 <= 1
 0 <= x(43)#43 <= 1
 0 <= x(44)#44 <= 1
 0 <= x(45)#45 <= 1
 0 <= x(46)#46 <= 1
 0 <= x(47)#47 <= 1
 0 <= x(48)#48 <= 1
 0 <= x(49)#49 <= 1
 0 <= x(50)#50 <= 1
 0 <= x(51)#51 <= 1
 0 <= x(52)#52 <= 1
 0 <= x(53)#53 <= 1
 0 <= x(54)#54 <= 1
 0 <= x(55)#55 <= 1
 0 <= x(56)#56 <= 1
 0 <= x(57)#57 <= 1
 0 <= x(58)#58 <= 1
 0 <= x(59)#59 <= 1
 0 <= x(60)#60 <= 1
 0 <= x(61)#61 <= 1
 0 <= x(62)#62 <= 1
 0 <= x(63)#63 <= 1
 0 <= x(64)#64 <= 1
 0 <= x(65)#65 <= 1
 0 <= x(66)#66 <= 1
 0 <= x(67)#67 <= 1
 0 <= x(68)#68 <= 1
 0 <= x(69)#69 <= 1
 0 <= x(70)#70 <= 1
 0 <= x(71)#71 <= 1
 0 <= x(72)#72 <= 1
 0 <= x(73)#73 <= 1
 0 <= x(74)#74 <= 1
 0 <= x(75)#75 <= 1
 0 <= x(76)#76 <= 1
 0 <= x(77)#77 <= 1
 0 <= x(78)#78 <= 1
 0 <= x(79)#79 <= 1
 0 <= x(80)#80 <= 1
 0 <= x(81)#81 <= 1
 0 <= x(82)#82 <= 1
 0 <= x(83)#83 <= 1
 0 <= x(84)#84 <= 1
 0 <= x(85)#85 <= 1
 0 <= x(86)#86 <= 1
 0 <= x(87)#87 <= 1
 0 <= x(88)#88 <= 1
 0 <= x(89)#89 <= 1
 0 <= x(90)#90 <= 1
 0 <= x(91)#91 <= 1
 0 <= x(92)#92 <= 1
 0 <= x(93)#93 <= 1
 0 <= x(94)#94 <= 1
 0 <= x(95)#95 <= 1
 0 <= x(96)#96 <= 1
 0 <= x(97)#97 <= 1
 0 <= x(98)#98 <= 1
 0 <= x(99)#99 <= 1
Generals
 x(0)#0  x(1)#1  x(2)#2  x(3)#3  x(4)#4  x(5)#5  x(6)#6  x(7)#7  x(8)#8 
 x(9)#9  x(10)#10  x(11)#11  x(12)#12  x(13)#13  x(14)#14  x(15)#15  x(16)#16 
 x(17)#17  x(18)#18  x(19)#19  x(20)#20  x(21)#21  x(22)#22  x(23)#23 
 x(24)#24  x(25)#25  x(26)#26  x(27)#27  x(28)#28  x(29)#29  x(30)#30 
 x(31)#31  x(32)#32  x(33)#33  x(34)#34  x(35)#35  x(36)#36  x(37)#37 
 x(38)#38  x(39)#39  x(40)#40  x(41)#41  x(42)#42  x(43)#43  x(44)#44 
 x(45)#45  x(46)#46  x(47)#47  x(48)#48  x(49)#49  x(50)#50  x(51)#51 
 x(52)#52  x(53)#53  x(54)#54  x(55)#55  x(56)#56  x(57)#57  x(58)#58 
 x(59)#59  x(60)#60  x(61)#61  x(62)#62  x(63)#63  x(64)#64  x(65)#65 
 x(66)#66  x(67)#67  x(68)#68  x(69)#69  x(70)#70  x(71)#71  x(72)#72 
 x(73)#73  x(74)#74  x(75)#75  x(76)#76  x(77)#77  x(78)#78  x(79)#79 
 x(80)#80  x(81)#81  x(82)#82  x(83)#83  x(84)#84  x(85)#85  x(86)#86 
 x(87)#87  x(88)#88  x(89)#89  x(90)#90  x(91)#91  x(92)#92  x(93)#93 
 x(94)#94  x(95)#95  x(96)#96  x(97)#97  x(98)#98  x(99)#99 
End
